NAME : sim161.128780.tour
COMMENT : Length = 128780
COMMENT : Found by LKH [Keld Helsgaun] Mon Sep 17 09:06:41 2018
TYPE : TOUR
DIMENSION : 161
TOUR_SECTION
1
21
158
147
142
86
124
96
69
127
136
44
70
6
117
4
99
145
134
92
125
82
88
50
27
67
90
47
102
98
48
5
146
38
56
104
153
71
26
68
151
101
9
24
78
84
59
15
122
83
91
108
113
144
116
12
61
8
118
65
74
57
130
112
160
140
20
111
121
131
2
39
41
36
156
29
128
126
114
105
149
34
106
46
31
94
107
7
138
18
100
97
51
62
109
110
14
120
132
87
79
32
129
152
81
141
35
52
64
40
28
161
45
155
58
75
80
53
22
16
123
30
85
54
143
159
139
11
42
95
60
17
66
37
89
93
154
72
73
33
115
63
103
25
119
135
77
148
157
23
76
3
13
43
10
55
137
49
133
19
150
-1
EOF
